2-NGO-COOH-O                            
   1.00000000000000     
    17.2371997832999995    0.0000000000000000    0.0000000000000000
    -8.6185998917000006   14.9278529024999997    0.0000000000000000
     0.0000000000000000    0.0000000000000000   25.0249996185000008
   C    N    O    H 
    95     4     6     3
Selective Dynamics
Direct
  0.9994876465863295  0.9996422638268522  0.1995998640995862 F F F
  0.0941163685532139  0.0463030823570215  0.2019294652327999 F F F
  0.1413979084822156  0.0000093799011428  0.1973614006272291 F F F
  0.2374335325549562  0.0475973365157259  0.1967413137588092 F F F
  0.2842630398092308  0.0002086310809728  0.1947605256287563 F F F
  0.3800188339618149  0.0477784096650658  0.1935249976455790 F F F
  0.4275880731462762  0.0000674334851063  0.1948880315648283 F F F
  0.5229792271056821  0.0479962916602531  0.1938539537564944 F F F
  0.5707720518147682  0.9999653622349970  0.1945490257295780 F F F
  0.6659715613208391  0.0471504641316225  0.1939024039347799 F F F
  0.7132865655366530  0.9993851385398168  0.1981520232520433 F F F
  0.8087512080701197  0.0475784448058353  0.1983483884602425 F F F
  0.8568059017531032  0.9995009358087873  0.2007420711168911 F F F
  0.9515760594832910  0.0474250928929321  0.1998141763054629 F F F
  0.0000511382125006  0.1432053071531954  0.1979591978423206 F F F
  0.0943745011437487  0.1912344476449842  0.2013925494018949 F F F
  0.1428873053206028  0.1432631779276992  0.2174692576530576 F F F
  0.2398539951534328  0.1918295086390179  0.2017244685412898 F F F
  0.2852161844725458  0.1436410834791144  0.1970024927123132 F F F
  0.3803946937064432  0.1913412058027623  0.1936262853313295 F F F
  0.4272735970941903  0.1428489513263339  0.1923939843040904 F F F
  0.5223930727600471  0.1909646996253921  0.1933492074636710 F F F
  0.5702158370603216  0.1431431162191458  0.1934503228463380 F F F
  0.6661607035610088  0.1905081395107614  0.1930089859259819 F F F
  0.7137131313417957  0.1425357761553947  0.1921334166794176 F F F
  0.8087224506383021  0.1902041463265645  0.1923186125507479 F F F
  0.8563890468752390  0.1421781447092547  0.1944385913357030 F F F
  0.9519321911353603  0.1903900032420282  0.1942453988779400 F F F
  0.9994426348613152  0.2855337224113310  0.1925158149489133 F F F
  0.0947981467286954  0.3331804821540216  0.1939807634660586 F F F
  0.1422358391944505  0.2854333002936951  0.1979797732218748 F F F
  0.2379952406210216  0.3339899905739123  0.1996731204359362 F F F
  0.2862966116022675  0.2862714687276524  0.1999181346969078 F F F
  0.3808107721074241  0.3335814287189613  0.1978959710617335 F F F
  0.4280501317508248  0.2869509068836615  0.1947381685421878 F F F
  0.5235674356938408  0.3343328818097841  0.1950694952338765 F F F
  0.5687621576439341  0.2859690735452783  0.1959254159278180 F F F
  0.6649251586485602  0.3319798283514906  0.2067058349413142 F F F
  0.7142282769791797  0.2845018965196380  0.1959064206646879 F F F
  0.8081536864068024  0.3327187256540718  0.1939321519089920 F F F
  0.8563132901636190  0.2854703583183196  0.1917387311020458 F F F
  0.9516180850985407  0.3331575961764823  0.1913048740909216 F F F
  0.9990813346226054  0.4282917420798765  0.1912937973875583 F F F
  0.0944931503225635  0.4756102543296954  0.1927941592878455 F F F
  0.1427334404530889  0.4283949242702570  0.1944637112456890 F F F
  0.2383131183057675  0.4761052285266826  0.1983143580289123 F F F
  0.2859059686753419  0.4278935511711686  0.1993094438387114 F F F
  0.3826295387019618  0.4761862820334993  0.2022890743115192 F F F
  0.5227018953781744  0.4764046436174743  0.1987590946708827 F F F
  0.6637904003108458  0.4784621958734661  0.1979624568988338 F F F
  0.7131903934829635  0.4307202853224018  0.2072021863072532 F F F
  0.8097052678020037  0.4775469279143069  0.1964468736269165 F F F
  0.8559241170372452  0.4292267193334874  0.1940784611509143 F F F
  0.9511408393729814  0.4759942809707635  0.1918279546465765 F F F
  0.9990548480324272  0.5714656354269452  0.1920037109569016 F F F
  0.0941033503607747  0.6186592701042580  0.1938736780154479 F F F
  0.1421287572540435  0.5708382085589812  0.1954239345362225 F F F
  0.2361098646328938  0.6165046674144099  0.2020577036843179 F F F
  0.2850048112660425  0.5709011554708917  0.2026161038153811 F F F
  0.3816167580956947  0.6186247101371709  0.2073305903900597 F F F
  0.4275058447302036  0.5689156856814583  0.2068207484750469 F F F
  0.5698530284982780  0.5696878333022222  0.1993230876241514 F F F
  0.7108591792701738  0.5707561591492215  0.1970240126098881 F F F
  0.8072334557486386  0.6189326376296170  0.1959529624421253 F F F
  0.8555590346717823  0.5714509314388584  0.1939776737214018 F F F
  0.9510955209586289  0.6190127503186365  0.1918983722097406 F F F
  0.9984172180580744  0.7141395763766685  0.1918342006225827 F F F
  0.0938435648164503  0.7619142055639834  0.1920753696597637 F F F
  0.1415475293421276  0.7143160998198956  0.1944246508414942 F F F
  0.2355196792713961  0.7624763622272196  0.1999788003433441 F F F
  0.2815294784890167  0.7127088862858308  0.2128649099290666 F F F
  0.3822675093713414  0.7630998670802587  0.2155637216890660 F F F
  0.4294890270935267  0.7126087263857819  0.2089432960136891 F F F
  0.5232003762358083  0.7600945621905382  0.2054370220007266 F F F
  0.5721416321900482  0.7149630005172295  0.2057169691286493 F F F
  0.6647005639641905  0.7584575416102070  0.2054104066836659 F F F
  0.7126525129844341  0.7127580512221094  0.2017764019123927 F F F
  0.8075642808169431  0.7606339361253963  0.2000905934268428 F F F
  0.8551507559245741  0.7135343076654602  0.1961915914402786 F F F
  0.9506531402572536  0.7612731869999441  0.1936592171327431 F F F
  0.9985482194211867  0.8567896526346815  0.1944763801220693 F F F
  0.0937110966425769  0.9046010959286163  0.1939373968408509 F F F
  0.1416021076001326  0.8570384224574774  0.1931341997104716 F F F
  0.2367830073760736  0.9045069726386799  0.1948917443863001 F F F
  0.2838572219921538  0.8565164387547167  0.1985229663375470 F F F
  0.3807168883299507  0.9047346969562315  0.1992924005619668 F F F
  0.4290749082153445  0.8591580374244687  0.2027943242941955 F F F
  0.5232731025197145  0.9048159751769731  0.1982347495055360 F F F
  0.5715700420183776  0.8569740111161657  0.2016504908358067 F F F
  0.6648686320608662  0.9045091347907810  0.2035122245703672 F F F
  0.7135583829449287  0.8565216215422319  0.2196080642959053 F F F
  0.8098620354931548  0.9048768808686147  0.2042051049418962 F F F
  0.8552285141435469  0.8566433335761682  0.2002535913976436 F F F
  0.9510147230102302  0.9042809310246931  0.1970579281145533 F F F
  0.5340447670425447  0.6146254581564083  0.2868726193052218 T T T
  0.4292228086510556  0.4285262594268799  0.2008883066702816 T T T
  0.5684329949722989  0.4281215715065971  0.1969389858135306 T T T
  0.5250400430529222  0.6170038214908221  0.2205217779144398 T T T
  0.6650581982796900  0.6195986917203578  0.1982486448995553 T T T
  0.6877272416516477  0.3796397257269813  0.2589408675506402 F F F
  0.7092672367758872  0.8511424960050256  0.2802156268817612 F F F
  0.1491612072715665  0.1471155992575011  0.2776362465302202 F F F
  0.5018036423154073  0.6622818003335283  0.3086225321183320 T T T
  0.5637203273282128  0.5711422853053220  0.3058921897840908 T T T
  0.3286994907369672  0.7391309509202567  0.2647462727860150 T T T
  0.7561377393551831  0.9093994330438580  0.2931623990313774 F F F
  0.0879956893809539  0.1109702324145873  0.2909969583680190 F F F
  0.5086555834626331  0.6629319298491150  0.3476286079023873 T T T