2-C4-CO2-O                              
   1.00000000000000     
    17.2371997832999995    0.0000000000000000    0.0000000000000000
    -8.6185998917000006   14.9278529024999997    0.0000000000000000
     0.0000000000000000    0.0000000000000000   25.0249996185000008
   C    N    O    H    Co
    93     4     6     2     1
Selective Dynamics
Direct
  0.0000744771205312  0.9982464402091910  0.1961156475560769 F F F
  0.0951238075999878  0.0461443274827349  0.1986359842569766 F F F
  0.1436035633253809  0.0012325939805745  0.1940179002285553 F F F
  0.2400216970794875  0.0501467672859168  0.1942657540533943 F F F
  0.2865246193685426  0.0024112526897348  0.1929262682074810 F F F
  0.3823566272937318  0.0506137073343625  0.1926331979325912 F F F
  0.4292090561062671  0.0019450895936737  0.1939109186506320 F F F
  0.5245176400230319  0.0486424340599550  0.1934694025825865 F F F
  0.5715343256277438  0.9994554735900930  0.1935530670587965 F F F
  0.6664350426832594  0.0453949028703498  0.1934511289336761 F F F
  0.7128475017467892  0.9962464479800597  0.1961818274212718 F F F
  0.8082878136884435  0.0443451392807427  0.1966915578496894 F F F
  0.8560823488398919  0.9958226019675378  0.1975553020523253 F F F
  0.9511442470845046  0.0447277642490160  0.1973359376521961 F F F
  0.9995928098343991  0.1408880013897019  0.1972782400422145 F F F
  0.0939133750848118  0.1896727021002544  0.2006203066852914 F F F
  0.1438381676063780  0.1427357846638159  0.2152552247472007 F F F
  0.2415185589335433  0.1935213431839785  0.1998105242523632 F F F
  0.2881458373256721  0.1468040563620041  0.1951934223644109 F F F
  0.3844263917768517  0.1968264536753421  0.1931870071501891 F F F
  0.4299377847702637  0.1463227183296389  0.1922883070901360 F F F
  0.5250327179972279  0.1929582555126647  0.1943490693868485 F F F
  0.5720580717334031  0.1437522010469839  0.1944100662034851 F F F
  0.6676267691109151  0.1895512823594125  0.1953453995543919 F F F
  0.7144373481369541  0.1408377844785782  0.1936110275538560 F F F
  0.8091600176220928  0.1881017296536382  0.1946491493379764 F F F
  0.8560792876853677  0.1393691469254571  0.1950265425829767 F F F
  0.9515883748449645  0.1880264086899281  0.1952004668250450 F F F
  0.9989722766897665  0.2834108330333781  0.1950285605644016 F F F
  0.0938383767697160  0.3315231657369852  0.1960412755249967 F F F
  0.1411131006550463  0.2837973738873859  0.1983963101328114 F F F
  0.2368107655685170  0.3330400949504367  0.1991124415958829 F F F
  0.2873845803536081  0.2882165220594738  0.1979833275226719 F F F
  0.3835940539236090  0.3405569716033563  0.1953591559646443 F F F
  0.4329231435059717  0.2936148270739930  0.1946006992539450 F F F
  0.5295371042031346  0.3400356229227662  0.1975786872927675 F F F
  0.5716339030538745  0.2876172884582018  0.1993380654121878 F F F
  0.6668999068038040  0.3300561746706880  0.2117927684289420 F F F
  0.7161076194239352  0.2831808657393133  0.2008496012908445 F F F
  0.8099132029814268  0.3313701931040252  0.1998423835437035 F F F
  0.8570293337366186  0.2835145955409642  0.1960663461244337 F F F
  0.9518487759405498  0.3314827938857070  0.1952944793151534 F F F
  0.9995089938141396  0.4268540546677932  0.1955824418317939 F F F
  0.0942325537680938  0.4748641501266261  0.1962583849951691 F F F
  0.1411368744030769  0.4271294654602714  0.1970564246183033 F F F
  0.2354922033443939  0.4753498220002829  0.1994425441633043 F F F
  0.2824180519747163  0.4271955996244008  0.1988691135811947 F F F
  0.3766607994276129  0.4748672345191471  0.1975084855742495 F F F
  0.6700616414281061  0.4767346635755567  0.2006989545230284 F F F
  0.7189314145369891  0.4309596185474515  0.2130263693987103 F F F
  0.8145025035086753  0.4772151912160414  0.2023476812658822 F F F
  0.8587691022077227  0.4279683115603532  0.2003956315181527 F F F
  0.9533097127812890  0.4753727154985419  0.1966241511632107 F F F
  0.0012881876607075  0.5711224203319722  0.1950986959194643 F F F
  0.0956595343213231  0.6191188594401891  0.1961565250742832 F F F
  0.1420621770050675  0.5703695909743021  0.1982360363060209 F F F
  0.2356034876130611  0.6166496456402406  0.2033554633955044 F F F
  0.2826920860271439  0.5701910376217411  0.2026694954230313 F F F
  0.3787074002522343  0.6182077941031008  0.2028479734708994 F F F
  0.4245223988118000  0.5709345850707691  0.1982400897677494 F F F
  0.7182410575418993  0.5711650877385325  0.1958996405934138 F F F
  0.8119917922849604  0.6181712719305527  0.1953909388428090 F F F
  0.8600215391139128  0.5706928622508906  0.1963653237465160 F F F
  0.9543229468216923  0.6190320031144344  0.1933979555830065 F F F
  0.0010372334381486  0.7144799366971785  0.1910378972519909 F F F
  0.0960739826204069  0.7628102822877189  0.1912180286040673 F F F
  0.1433225169059543  0.7150599107064957  0.1949193750759569 F F F
  0.2370884274828943  0.7637811348199972  0.1998917643336444 F F F
  0.2827157512381537  0.7137672220161364  0.2126277082824808 F F F
  0.3831908326790550  0.7641109947675481  0.2131534625409263 F F F
  0.4292557949649399  0.7129300389467245  0.2043034143947768 F F F
  0.5217610742381863  0.7571978762908397  0.2000590447059954 F F F
  0.5669249651742749  0.7052433530652976  0.1971926444743126 F F F
  0.6615242517416785  0.7509188426276983  0.1976862745456299 F F F
  0.7108563652049179  0.7055684358739011  0.1951219350462066 F F F
  0.8077258095567927  0.7572503468150926  0.1945483198921575 F F F
  0.8578649195579056  0.7130692371450852  0.1931137768975872 F F F
  0.9534055616159297  0.7615659625141815  0.1910613865131968 F F F
  0.0006376250561040  0.8568187285359395  0.1908218540423489 F F F
  0.0960234499082687  0.9056171597808305  0.1907409648095507 F F F
  0.1437734262005103  0.8582098005561242  0.1910492221318593 F F F
  0.2389769602237590  0.9064109156705400  0.1931372239977989 F F F
  0.2855296091053679  0.8580325513189746  0.1973537404887144 F F F
  0.3821218883605164  0.9063194409984019  0.1977299880157566 F F F
  0.4298426814329089  0.8599906590343777  0.2005337513530987 F F F
  0.5237763612956476  0.9041871158876161  0.1961149781285594 F F F
  0.5708718501082604  0.8546445590278487  0.1984222380375668 F F F
  0.6638749079120675  0.9007301603492694  0.1997332594378856 F F F
  0.7109863569358542  0.8494237254725507  0.2137514941771892 F F F
  0.8087987663322155  0.9005862902932836  0.1989630917931396 F F F
  0.8554977138452641  0.8537883523219418  0.1947929838721977 F F F
  0.9517347483898634  0.9028169968641502  0.1927839575435775 F F F
  0.5544629820313596  0.5405488920374930  0.3242762102297040 T T T
  0.4262403786719390  0.4334976501067335  0.1953094114716687 T T T
  0.5800293995165778  0.4342234056031626  0.1977915536261346 T T T
  0.5159470994539164  0.6123778577709267  0.1954051403120420 T T T
  0.6680964806293171  0.6126632893089033  0.1937388812023960 T T T
  0.6907187667264106  0.3789651920848487  0.2625561340342574 T T T
  0.3326775209212208  0.7408663657470466  0.2633807924538598 F F F
  0.7086382454405332  0.8435710156216287  0.2737072566348101 F F F
  0.1495298188576702  0.1441773676372125  0.2753105714158187 F F F
  0.6233263015617475  0.5417246898191260  0.3248817718170729 T T T
  0.4854996434203560  0.5392143004303596  0.3248237180075416 T T T
  0.7408430443999325  0.9048917826988582  0.2874588051719845 F F F
  0.0879490888914639  0.1100138537832957  0.2883852072696221 F F F
  0.5475569226432725  0.5232979370392008  0.1938397110292762 T T T
