5-C4-COOHr-OH                           
   1.00000000000000     
    17.2371997832999995    0.0000000000000000    0.0000000000000000
    -8.6185998917000006   14.9278529024999997    0.0000000000000000
     0.0000000000000000    0.0000000000000000   25.0249996185000008
   C    N    O    H    Co
    93     4     6     4     1
Selective Dynamics
Direct
  0.0006684766260739  0.9986175567413625  0.1985648378901178 F F F
  0.0957808900687799  0.0465132389366890  0.2013459550947012 F F F
  0.1444434640980790  0.0016483484757366  0.1970518088809446 F F F
  0.2409196363852275  0.0506204544518511  0.1976535603416686 F F F
  0.2874788125279488  0.0029220801632290  0.1962206409253532 F F F
  0.3833333350201580  0.0511013313364915  0.1956357776205775 F F F
  0.4299884636386330  0.0020216450803778  0.1962047466646968 F F F
  0.5248725878402672  0.0483257193110529  0.1946888431003883 F F F
  0.5718922980658890  0.9995142447179972  0.1951157829930450 F F F
  0.6669243546231179  0.0457669299889405  0.1945928915276734 F F F
  0.7133686578577536  0.9966839821447147  0.1978597530653670 F F F
  0.8088112164616726  0.0448158320280730  0.1980095927523997 F F F
  0.8567335407080133  0.9963191973218738  0.1994470227846555 F F F
  0.9517675180555482  0.0451985790305486  0.1992725814269016 F F F
  0.0000786156566482  0.1414547232542977  0.1985342891377732 F F F
  0.0945199452033463  0.1902380230685649  0.2019915589172738 F F F
  0.1444022630623844  0.1434641815433908  0.2173810838991993 F F F
  0.2420578057893768  0.1938798857858596  0.2021568173053024 F F F
  0.2891986483533000  0.1473752701549296  0.1985431080241731 F F F
  0.3853144630357948  0.1971292905254422  0.1965081316128833 F F F
  0.4311489099688732  0.1467811317361317  0.1950403198030351 F F F
  0.5263427823325447  0.1932899156456499  0.1945359350139249 F F F
  0.5727225929358848  0.1440413164782670  0.1938283031144075 F F F
  0.6677629418397579  0.1900016646321092  0.1932902045512091 F F F
  0.7147269667459468  0.1412965490709840  0.1931970970600767 F F F
  0.8094768988432768  0.1883638613482042  0.1935448023954092 F F F
  0.8563718446927178  0.1398365388163365  0.1951947416941006 F F F
  0.9521316866150009  0.1884243858124231  0.1953088963440534 F F F
  0.9995447370197824  0.2837966486723447  0.1937684821874630 F F F
  0.0943941551746806  0.3317851639416722  0.1949759302707434 F F F
  0.1417023962914470  0.2841893144269767  0.1987179195012325 F F F
  0.2374731998001957  0.3333598342323251  0.1995234926290032 F F F
  0.2878749966861599  0.2882950507686752  0.1996621493400285 F F F
  0.3842200803294297  0.3406553632417885  0.1976361120318225 F F F
  0.4342079561689223  0.2941746156578510  0.1976221588503166 F F F
  0.5303299417717219  0.3409046133157994  0.1985622765802908 F F F
  0.5753819287659820  0.2892267471564087  0.1972110224969240 F F F
  0.6689810782069847  0.3324919191351145  0.2001754841878052 F F F
  0.7155290029727194  0.2850129026668067  0.1956776439919173 F F F
  0.8109807549315168  0.3321680265449887  0.1949629009485048 F F F
  0.8572748841266800  0.2841522878303853  0.1931309818974957 F F F
  0.9524923741008614  0.3319129173805854  0.1922946074680703 F F F
  0.0001169993168211  0.4270770527154751  0.1913109641899100 F F F
  0.0949086600960789  0.4750597472555009  0.1929804241125838 F F F
  0.1417491721587044  0.4273418525376224  0.1950219704755940 F F F
  0.2361311998698327  0.4754933710125341  0.1979516376850454 F F F
  0.2831081150711237  0.4273838062404087  0.1982571077760719 F F F
  0.3774886129439519  0.4750253911512965  0.1975205611748245 F F F
  0.6713096192224790  0.4757234326561332  0.2003095843638723 F F F
  0.7187698878938321  0.4281819698253767  0.2167277397720045 F F F
  0.8141664534101271  0.4765264071169142  0.1994866622810251 F F F
  0.8591961857078385  0.4280657250761160  0.1947093975876745 F F F
  0.9537752143599200  0.4755878719442793  0.1913831467073240 F F F
  0.0018237192148832  0.5713319513716902  0.1913677346612028 F F F
  0.0961871795891960  0.6193317393425626  0.1934480140919976 F F F
  0.1427235317282026  0.5705252628961092  0.1953388178940645 F F F
  0.2359992935764933  0.6166176246907336  0.2016746363756366 F F F
  0.2833093351423548  0.5702639090701612  0.2013160875842917 F F F
  0.3792673652301314  0.6182657178630452  0.2024528719960552 F F F
  0.4254349144840462  0.5711345732263037  0.1984080325150341 F F F
  0.7189166356170625  0.5705525786947582  0.1978096282995481 F F F
  0.8128248086538187  0.6183769769705080  0.1963543740150846 F F F
  0.8601404978717662  0.5703082642851000  0.1951258076301516 F F F
  0.9545422993489309  0.6190293434809508  0.1913351833853014 F F F
  0.0015211477323463  0.7147018447041896  0.1908347731717651 F F F
  0.0966057941644811  0.7631337874975579  0.1914629708878146 F F F
  0.1438618572320866  0.7153118467182779  0.1941064831897694 F F F
  0.2374671065009169  0.7638411613336336  0.2001845081831914 F F F
  0.2828039075843219  0.7133156387263268  0.2122279787602340 F F F
  0.3833415225723133  0.7637138898913213  0.2139515808472146 F F F
  0.4297594725556987  0.7128939168246077  0.2049242486848473 F F F
  0.5224407884497984  0.7574503066906902  0.2017947605331206 F F F
  0.5677291773465729  0.7055314184629684  0.1997374983439416 F F F
  0.6622216416107333  0.7509570726990763  0.2013229967344890 F F F
  0.7117463120998211  0.7055991322112047  0.1990221058361679 F F F
  0.8085598381870904  0.7575858896439371  0.1974171636696994 F F F
  0.8583690162383355  0.7131140990328170  0.1950839563154631 F F F
  0.9540759696566093  0.7619568142399049  0.1925264903830124 F F F
  0.0013069142460865  0.8571813250102176  0.1932008257402028 F F F
  0.0967458275674249  0.9060382759908472  0.1933362940135769 F F F
  0.1444215941192199  0.8585497101807931  0.1929862571252220 F F F
  0.2396444468353431  0.9067563311781395  0.1956405896730094 F F F
  0.2861053341259386  0.8581952125967740  0.1991827839662395 F F F
  0.3827195118005596  0.9063800271441128  0.1999130302944453 F F F
  0.4303510575169477  0.8599454792526515  0.2023737467813795 F F F
  0.5242382328102417  0.9042148745062069  0.1981628798710171 F F F
  0.5715397171372320  0.8548689194033366  0.2005648252132735 F F F
  0.6644901246863261  0.9010661818822027  0.2019078589523614 F F F
  0.7118347620935097  0.8500926852571464  0.2163575133020315 F F F
  0.8095829238699317  0.9010476303659055  0.2012887040423657 F F F
  0.8561969312822001  0.8541210503198140  0.1973546478691658 F F F
  0.9523845474484951  0.9032264219420739  0.1953409662403986 F F F
  0.5391676702172612  0.5185767251663140  0.2782212139408797 T T T
  0.4263765039021197  0.4331523682241256  0.1968574888600178 T T T
  0.5809882792763109  0.4333130425927854  0.1984223730521391 T T T
  0.5166695675185485  0.6130516946851128  0.1971434696968630 T T T
  0.6695631497920482  0.6128659112025761  0.1980489910226898 T T T
  0.3311729152228349  0.7383440076445906  0.2634955818106944 F F F
  0.7106603106665709  0.8461599264624141  0.2762928038668498 F F F
  0.1489889187047901  0.1453737590822306  0.2774529508974204 F F F
  0.7224504922768357  0.4285753510969355  0.2766234976197396 T T T
  0.4820486553848488  0.5244154164061119  0.3033274442727571 T T T
  0.6045067529858047  0.5084441151685590  0.3037276696703144 T T T
  0.7419234880822697  0.9080258947339683  0.2891557138919870 F F F
  0.0872728624075501  0.1114438028199263  0.2903379530988464 F F F
  0.5928373322251388  0.5091862125311490  0.3421261381406083 T T T
  0.6806245862050061  0.4476825226407120  0.2890310562592736 T T T
  0.5484064697547635  0.5233423928389024  0.2032965093763006 T T T