CO                                      
1.0
       17.2371997833         0.0000000000         0.0000000000
       -8.6185998917        14.9278529025         0.0000000000
        0.0000000000         0.0000000000        25.0249996185
    C    O
    1    1
Selective Dynamics
Direct
     0.471031815         0.483126223         0.522125244 T T T
     0.547618151         0.521413803         0.522154808 T T T
