6-C4-CO-O_H2O                           
   1.00000000000000     
    17.2371997832999995    0.0000000000000000    0.0000000000000000
    -8.6185998917000006   14.9278529024999997    0.0000000000000000
     0.0000000000000000    0.0000000000000000   25.0249996185000008
   C    N    O    H    Co
    93     4     6     4     1
Selective Dynamics
Direct
  0.0001220330904730  0.9982500825084953  0.1980210173952399 F F F
  0.0951645960973735  0.0461706951065192  0.2007708658800098 F F F
  0.1437225765648859  0.0013070255403490  0.1963850278587691 F F F
  0.2401575027242370  0.0501813542789655  0.1973838876214780 F F F
  0.2866864505719924  0.0024022261941799  0.1960254471191535 F F F
  0.3823824390736987  0.0504211745915785  0.1962676503584371 F F F
  0.4292093517632419  0.0017351010775048  0.1971470946302382 F F F
  0.5245447808624263  0.0483765338402467  0.1963339830371295 F F F
  0.5715252453991014  0.9991859343586417  0.1961006006453853 F F F
  0.6664235518290809  0.0450635730163220  0.1952051930573041 F F F
  0.7129586876158797  0.9960338712355291  0.1982304723368684 F F F
  0.8083651506254745  0.0442686270968171  0.1980178157889025 F F F
  0.8560973666098000  0.9957807206063095  0.1993975820590391 F F F
  0.9511489850280826  0.0447411545035529  0.1987759146587893 F F F
  0.9995994358328977  0.1408522913486286  0.1976255397538044 F F F
  0.0939131398817287  0.1896949904913501  0.2010665953465344 F F F
  0.1435860095240777  0.1430063991238755  0.2169658632142778 F F F
  0.2415881668449111  0.1936018641878110  0.2022367183318315 F F F
  0.2883073465894027  0.1467216738833227  0.1988134503221911 F F F
  0.3845214970143430  0.1965537619166815  0.1977575863887239 F F F
  0.4300147196057514  0.1462142051901701  0.1964309459908876 F F F
  0.5251615457803602  0.1928162900249343  0.1975472387691157 F F F
  0.5721536330915350  0.1434662634002742  0.1966627932120472 F F F
  0.6676504862461234  0.1891789036432241  0.1956328449783653 F F F
  0.7144242810993144  0.1404615083020640  0.1938868044502662 F F F
  0.8092254912589084  0.1878700624391541  0.1934539396436690 F F F
  0.8561569754487532  0.1392513073952821  0.1947529968736691 F F F
  0.9515845354084173  0.1879225142329766  0.1942735121360772 F F F
  0.9990343754207635  0.2832683408964001  0.1924163203994109 F F F
  0.0939717228036607  0.3313986124065179  0.1934399251793523 F F F
  0.1412072998089855  0.2837893506678920  0.1975015411607231 F F F
  0.2368636083653234  0.3330876354918541  0.1987855736935411 F F F
  0.2874241864886216  0.2881765409114660  0.1999096134060597 F F F
  0.3837855263913259  0.3404166679968220  0.1993008687624064 F F F
  0.4330816548025327  0.2935490863107588  0.1997852445164492 F F F
  0.5295826797071265  0.3397746277669857  0.2021547880488560 F F F
  0.5719133194310327  0.2874226529334725  0.2019363989760534 F F F
  0.6683165802747340  0.3307008059121371  0.2109397237974026 F F F
  0.7164823381381139  0.2831176919731292  0.1989607403762329 F F F
  0.8100717002828755  0.3312948007702295  0.1958095753878512 F F F
  0.8571534808932563  0.2833293409770292  0.1927257097495534 F F F
  0.9519558746741118  0.3313280927960859  0.1913111903607475 F F F
  0.9997290040892927  0.4268534454604493  0.1905493050892091 F F F
  0.0943803892103471  0.4747726368973417  0.1916411927056735 F F F
  0.1412946412806898  0.4270234232789226  0.1933450948674635 F F F
  0.2356813587494765  0.4753092831767085  0.1962550087548047 F F F
  0.2825292798847582  0.4271227569475849  0.1972013246098921 F F F
  0.3770937005187884  0.4750376899204538  0.1976146708878316 F F F
  0.6703487715567925  0.4768017575902147  0.2007398991452412 F F F
  0.7201010031827924  0.4308524645581527  0.2101092463283183 F F F
  0.8148546326440196  0.4772155828171913  0.1973045470011016 F F F
  0.8590146101867110  0.4280220958402546  0.1948726484424659 F F F
  0.9535486225005610  0.4753784754000165  0.1909645839927309 F F F
  0.0014654301858887  0.5712052777832022  0.1901044562444595 F F F
  0.0957829806189880  0.6191182043079494  0.1921631127543641 F F F
  0.1421489765767106  0.5703418099709017  0.1940892717140405 F F F
  0.2353792850336373  0.6165191822617772  0.2005232330532609 F F F
  0.2827610154098886  0.5702630018916979  0.1999137812772579 F F F
  0.3783997240089879  0.6184265587424774  0.2017379524438780 F F F
  0.4246921309930357  0.5707879118772740  0.1985705039785107 F F F
  0.7181152153691973  0.5710840251958488  0.1966371403014627 F F F
  0.8126082006842573  0.6185251679550373  0.1939311510115189 F F F
  0.8602124136313539  0.5710389818540016  0.1923407364746310 F F F
  0.9546524203448156  0.6192750248356348  0.1893561418192631 F F F
  0.0013152427571809  0.7146631205250660  0.1890022902099921 F F F
  0.0963728896875004  0.7630571127622739  0.1899847879152520 F F F
  0.1434767336647454  0.7151221255568643  0.1928449433907637 F F F
  0.2369367754433687  0.7635597887345276  0.1994266519355416 F F F
  0.2819709410339560  0.7129446146385923  0.2116730160234672 F F F
  0.3825321000454136  0.7633609710209980  0.2139283071535638 F F F
  0.4288198536902583  0.7125158799591682  0.2049076471967588 F F F
  0.5218541882153154  0.7573074745930227  0.2023817129959968 F F F
  0.5670737070600970  0.7054121219350717  0.2013324556361728 F F F
  0.6617075810736213  0.7507109736736258  0.2029359549141549 F F F
  0.7115768216381538  0.7057342407094609  0.1996318251043807 F F F
  0.8080824200837020  0.7573948281780014  0.1969424390866195 F F F
  0.8581395704252268  0.7130091346908459  0.1933842979053837 F F F
  0.9536215631205198  0.7616572932848563  0.1907675408404619 F F F
  0.0008024562433589  0.8569485387670007  0.1919561987859074 F F F
  0.0961919799980506  0.9057798972114003  0.1922352902345995 F F F
  0.1439727215044908  0.8583569368687527  0.1918271132287455 F F F
  0.2390767098825324  0.9064080724047546  0.1950030600609656 F F F
  0.2855129361504981  0.8579069674029394  0.1987931791939999 F F F
  0.3820645924318984  0.9061185317729810  0.2002278302210599 F F F
  0.4297873206026059  0.8597022075845647  0.2027887012366633 F F F
  0.5237451729112998  0.9039027906246582  0.1987630016100604 F F F
  0.5709506451161959  0.8544059323270408  0.2011390909565280 F F F
  0.6641340170479775  0.9006163725237323  0.2026437032031624 F F F
  0.7115524397819711  0.8500024673076116  0.2174956971347996 F F F
  0.8088137766903816  0.9005449188175679  0.2016150210664665 F F F
  0.8554857944266158  0.8537117575558559  0.1970948967525757 F F F
  0.9518128006205715  0.9028539913504140  0.1946295895152843 F F F
  0.5405851783887472  0.5269635259633514  0.2823813733867066 T T T
  0.4263734894540862  0.4333112616212902  0.1990275521755645 T T T
  0.5803397678803162  0.4338353833578661  0.2022860875042944 T T T
  0.5158554260274718  0.6127741133423135  0.1995984191582710 T T T
  0.6688523396772529  0.6129679725317850  0.1984358679751511 T T T
  0.3297051921215615  0.7375244451763022  0.2632488478625905 F F F
  0.7101260047356220  0.8459711724424476  0.2774786525005539 F F F
  0.1484442309154394  0.1453645237249885  0.2770783899057934 F F F
  0.6974198557850051  0.3815361616766775  0.2614905495707716 T T T
  0.5254712997116263  0.5313104790629244  0.3271176990560564 T T T
  0.6960613888485455  0.5174515948058735  0.3245871941047730 T T T
  0.7452715635961114  0.9076260228724752  0.2903313502358756 F F F
  0.0869120873731139  0.1098823423740865  0.2900201334845838 F F F
  0.6643188584661237  0.5075814083215319  0.3582285680243512 T T T
  0.6870679551124569  0.4588032330433119  0.3142018747620169 T T T
  0.5478177369330283  0.5236281009926949  0.2122495582127374 T T T