3-C4-CO2-OH                             
   1.00000000000000     
    17.2371997832999995    0.0000000000000000    0.0000000000000000
    -8.6185998917000006   14.9278529024999997    0.0000000000000000
     0.0000000000000000    0.0000000000000000   25.0249996185000008
   C    N    O    H    Co
    93     4     6     3     1
Selective Dynamics
Direct
  0.0004606367223311  0.9986233692899642  0.1946307413975341 F F F
  0.0954626192799290  0.0463645170771057  0.1982933888027669 F F F
  0.1442331995029000  0.0015727570919955  0.1943270510293846 F F F
  0.2406481947196004  0.0505960787695363  0.1958181447898505 F F F
  0.2872618650355856  0.0029446389371073  0.1954982249232248 F F F
  0.3830666765208322  0.0511413175807807  0.1952874446297690 F F F
  0.4297012024084776  0.0020827953108587  0.1968444141112851 F F F
  0.5245510234332987  0.0483679574332214  0.1947866087493661 F F F
  0.5715214395224544  0.9994936302678836  0.1950953954459191 F F F
  0.6665371915835029  0.0457599196652113  0.1937191712723139 F F F
  0.7130085650419281  0.9965910801703655  0.1959539401614293 F F F
  0.8084502043107483  0.0447258646469775  0.1957595555767395 F F F
  0.8564573317741189  0.9962963778437527  0.1958902865959969 F F F
  0.9514980723550799  0.0451373968178426  0.1961215995638489 F F F
  0.9997513802743005  0.1413936896157043  0.1974170326544530 F F F
  0.0940574480369397  0.1900032872428408  0.2018016430941222 F F F
  0.1438104388381912  0.1425705510977786  0.2158894176320436 F F F
  0.2416322505673041  0.1937455462791271  0.2009708290680857 F F F
  0.2888251609569712  0.1473738027213143  0.1966494359534296 F F F
  0.3849241592807389  0.1971973040482227  0.1941899858042741 F F F
  0.4308142997826236  0.1468316895629258  0.1935677319747804 F F F
  0.5259585263548014  0.1933331363907263  0.1930689926911335 F F F
  0.5723613957021350  0.1440758967428848  0.1931196261479125 F F F
  0.6674009153714776  0.1900901105259093  0.1925393284720142 F F F
  0.7143340746194546  0.1413394384565462  0.1925561849812520 F F F
  0.8091155668827887  0.1884262650660562  0.1933140495132193 F F F
  0.8560244618494988  0.1398764544129198  0.1943497537476719 F F F
  0.9517583456615362  0.1884412652349507  0.1953066279785998 F F F
  0.9991652390029826  0.2838476031626245  0.1956677030215692 F F F
  0.0939816647540290  0.3318224570145170  0.1980661920720670 F F F
  0.1412598891396193  0.2840992936865790  0.2006762195448143 F F F
  0.2370535717600720  0.3332341684927243  0.2015340195753763 F F F
  0.2875130822910322  0.2882898909662679  0.1994718846504761 F F F
  0.3837588892582469  0.3408051768427429  0.1957524177206876 F F F
  0.4337401312114111  0.2942764729269219  0.1941916334733704 F F F
  0.5298832913804653  0.3410297689314234  0.1941658883194916 F F F
  0.5749026911831399  0.2893830942014988  0.1946727360162401 F F F
  0.6685082559889984  0.3327794540561814  0.1982151513960655 F F F
  0.7151248509215912  0.2851876087158635  0.1946691414958618 F F F
  0.8105637444703794  0.3322809468558355  0.1947908757409409 F F F
  0.8569153492205692  0.2842235554430128  0.1937153093095074 F F F
  0.9521242566605284  0.3319708798681103  0.1941934398721268 F F F
  0.9998269760421182  0.4271662627200949  0.1939371640700509 F F F
  0.0945223670774709  0.4751161057179324  0.1970694824338791 F F F
  0.1413190902264429  0.4273797993140520  0.1994915921577381 F F F
  0.2356738939647779  0.4755006102688866  0.2028220182256550 F F F
  0.2826998598202998  0.4273444554625813  0.2017613840358153 F F F
  0.3769816903304516  0.4750700920554055  0.1991930407537786 F F F
  0.6708018540273877  0.4759398536173448  0.1962321012344222 F F F
  0.7179389986550779  0.4287854479769065  0.2142271584741677 F F F
  0.8136795779641616  0.4767382928836822  0.1975205126040424 F F F
  0.8588050558712359  0.4281454396230177  0.1943720765678927 F F F
  0.9535348181518019  0.4756500908572259  0.1925619068946287 F F F
  0.0016813075286673  0.5713659705365102  0.1923588889543218 F F F
  0.0959294266969276  0.6193160940093924  0.1960081262736112 F F F
  0.1423710137680898  0.5705484373544556  0.1995049977963498 F F F
  0.2356410445636545  0.6166605984512861  0.2063805493186915 F F F
  0.2829506403687915  0.5702761213299720  0.2062911095507636 F F F
  0.3790974048675871  0.6182761244711799  0.2060873101588270 F F F
  0.4248439173375324  0.5710948929090017  0.1999219675329768 F F F
  0.7187391645917074  0.5708819182770122  0.1921696464670199 F F F
  0.8124549417141426  0.6184978526650740  0.1918010806507166 F F F
  0.8598747157297845  0.5703988075727406  0.1925458355820268 F F F
  0.9543832971567136  0.6190357377896938  0.1901633760727603 F F F
  0.0014921070933396  0.7147202901052556  0.1889280817581804 F F F
  0.0965743214185801  0.7630793711933501  0.1911227362986252 F F F
  0.1437416854539088  0.7153632712138132  0.1960148866392719 F F F
  0.2371992593468287  0.7639213289108007  0.2030359247661426 F F F
  0.2826301609727346  0.7136869859449785  0.2159672326207907 F F F
  0.3835468720489561  0.7641392966055213  0.2168549530600024 F F F
  0.4296724565111888  0.7130325291416211  0.2074526666824374 F F F
  0.5220692374628835  0.7572743044382160  0.2017420168794992 F F F
  0.5672160907292951  0.7054200620766240  0.1968593278917784 F F F
  0.6618168504111874  0.7509857473781144  0.1956434139762238 F F F
  0.7114069385588970  0.7057456126717868  0.1918974593766397 F F F
  0.8082985203067918  0.7576505703693428  0.1911530571473043 F F F
  0.8582134817793249  0.7132793613732954  0.1897914830028559 F F F
  0.9539996114318203  0.7620087264057543  0.1884875158413251 F F F
  0.0012768584435808  0.8572732572091529  0.1889777026157916 F F F
  0.0966745221093904  0.9060093452997536  0.1904554971744878 F F F
  0.1443583070746214  0.8585058234136205  0.1918831873563743 F F F
  0.2394544321859507  0.9067212081479088  0.1957398308552981 F F F
  0.2858676978263408  0.8583125933755628  0.2010174545057319 F F F
  0.3824859614049015  0.9065340556842333  0.2016891892329808 F F F
  0.4301618050533044  0.8601083843995486  0.2043468115959642 F F F
  0.5238871131499417  0.9042080778241637  0.1988098813750265 F F F
  0.5711476629552075  0.8547459271029606  0.2000062280654362 F F F
  0.6641601704148761  0.9009051010047437  0.1996305775290611 F F F
  0.7117915325467075  0.8494673296861083  0.2120334491430844 F F F
  0.8093502909473947  0.9009400368990476  0.1965366060084280 F F F
  0.8560641173889727  0.8542045749969456  0.1917984519095894 F F F
  0.9522923656557994  0.9033172900494429  0.1904306776276569 F F F
  0.5493162386756409  0.5298272719455467  0.3204380886512398 T T T
  0.4263438653717428  0.4336103415891156  0.1953719216318904 T T T
  0.5804928291445368  0.4336544072310010  0.1923525982306929 T T T
  0.5161370377975587  0.6124621300209743  0.1949955176898818 T T T
  0.6688475228752604  0.6128171974059174  0.1902407948799291 T T T
  0.3322831853801677  0.7402099783975676  0.2666819411278210 F F F
  0.7118539186254540  0.8429517267060039  0.2719363651068309 F F F
  0.1474113673616303  0.1412342867859342  0.2759500627396050 F F F
  0.7223105615918810  0.4308854726795309  0.2741471422274133 T T T
  0.4977319352721720  0.5554811504260144  0.3217309107935371 T T T
  0.6009246057993881  0.5038935802261136  0.3209331036127163 T T T
  0.7409836772839197  0.9040776277983134  0.2859611246292703 F F F
  0.0853954148314988  0.1072979725805646  0.2883411587594212 F F F
  0.6768943733335738  0.4441820704167874  0.2874393029192915 T T T
  0.5481005638853745  0.5237488865406628  0.1909131902832663 T T T