0.030   2   2   1    4  0.030   19    3    7    4    8           # Parameters to Generate KPOINTS (don't Edit This Line)
    23
Reciprocal lattice
    0.00000000000000    0.00000000000000    0.00000000000000     1
    0.50000000000000    0.00000000000000    0.00000000000000     1
    0.00000000000000    0.50000000000000    0.00000000000000     1
    0.50000000000000    0.50000000000000    0.00000000000000     1
    0.00000000000000    0.00000000000000    0.00000000000000     0
    0.08333333333333    0.00000000000000    0.00000000000000     0
    0.16666666666667    0.00000000000000    0.00000000000000     0
    0.25000000000000    0.00000000000000    0.00000000000000     0
    0.33333333333333    0.00000000000000    0.00000000000000     0
    0.41666666666667    0.00000000000000    0.00000000000000     0
    0.50000000000000    0.00000000000000    0.00000000000000     0
    0.50000000000000    0.00000000000000    0.00000000000000     0
    0.44444444443333    0.11111111110000    0.00000000000000     0
    0.38888888886667    0.22222222220000    0.00000000000000     0
    0.33333333330000    0.33333333330000    0.00000000000000     0
    0.33333333330000    0.33333333330000    0.00000000000000     0
    0.28571428568571    0.28571428568571    0.00000000000000     0
    0.23809523807143    0.23809523807143    0.00000000000000     0
    0.19047619045714    0.19047619045714    0.00000000000000     0
    0.14285714284286    0.14285714284286    0.00000000000000     0
    0.09523809522857    0.09523809522857    0.00000000000000     0
    0.04761904761429    0.04761904761429    0.00000000000000     0
    0.00000000000000    0.00000000000000    0.00000000000000     0
