Primitive Cell
  1.000000
   17.23719978330000    0.00000000000000    0.00000000000000
   -8.61859989160000   14.92785290250000    0.00000000000000
    0.00000000000000    0.00000000000000   25.02499961850000
  C   N   O   H   Co
  92   4   4   2   1
DIRECT
    0.0015539210000000    0.0012971160000000    0.8025047030000001     C1
    0.0486465620000000    0.9533829090000000    0.7995919440000001     C2
    0.1421347900000000    0.9983398210000000    0.8036056610000001     C3
    0.1896703770000000    0.9494745360000000    0.8029431850000001     C4
    0.2839190230000000    0.9972541790000000    0.8035833980000000     C5
    0.3315242010000000    0.9490590770000000    0.8034902960000001     C6
    0.4270199670000000    0.9977494910000000    0.8019057810000001     C7
    0.4755967630000000    0.9510362520000000    0.8023210470000001     C8
    0.5717810390000001    0.0002136230000001    0.8025893870000000     C9
    0.6207125780000000    0.9542669650000000    0.8031696680000000    C10
    0.7163141970000001    0.0034120680000000    0.8013299850000001    C11
    0.7636683810000000    0.9553316460000000    0.8014469000000001    C12
    0.8599969740000000    0.0038125510000000    0.8012483420000001    C13
    0.9061282100000000    0.9548933920000000    0.8014974150000000    C14
    0.8583698869999999    0.8587674500000000    0.8017765430000001    C15
    0.9039090500000000    0.8099389670000000    0.7987447680000000    C16
    0.0004785210000000    0.8565625400000000    0.7834870370000000    C17
    0.0476628390000000    0.8060828300000000    0.7989805190000001    C18
    0.1411301790000000    0.8528442979999999    0.8026261780000000    C19
    0.1874017270000000    0.8028392940000000    0.8044095190000000    C20
    0.2834120990000000    0.8533738850000000    0.8043065220000001    C21
    0.3317975099999999    0.8066938219999999    0.8021930900000001    C22
    0.4280139800000000    0.8559211490000000    0.8016815780000001    C23
    0.4777597339999999    0.8101101070000000    0.8013073500000001    C24
    0.5732612459999999    0.8588452790000000    0.8032048940000001    C25
    0.6207208330000000    0.8115848000000000    0.8031114190000000    C26
    0.7163704630000000    0.8603187200000000    0.8031942990000001    C27
    0.7632316649999999    0.8116762340000000    0.8038322630000001    C28
    0.7152231040000000    0.7162998020000000    0.8046496360000001    C29
    0.7620367030000000    0.6682210860000000    0.8043990430000001    C30
    0.8570375590000000    0.7159039080000000    0.8018188180000001    C31
    0.9035064280000000    0.6666584910000000    0.8013899330000001    C32
    0.9989099500000000    0.7114769220000000    0.8017006370000000    C33
    0.0428464420000000    0.6591446999999999    0.8041213010000001    C34
    0.1391145880000000    0.7060262560000000    0.8038235460000001    C35
    0.1892362530000000    0.6595322189999999    0.8006906060000001    C36
    0.2836853560000001    0.7119229730000001    0.7980972380000000    C37
    0.3363867699999999    0.6691538990000000    0.7860972580000001    C38
    0.4325924209999999    0.7163591680000000    0.7967518270000000    C39
    0.4782006740000000    0.6682092550000001    0.7987081110000001    C40
    0.5731773380000000    0.7161560060000001    0.8024774040000000    C41
    0.6200266180000000    0.6682239470000000    0.8041985330000001    C42
    0.5723613800000000    0.5728590190000000    0.8044546100000001    C43
    0.6191277049999999    0.5248859820000000    0.8043233310000001    C44
    0.7137638780000000    0.5726209580000000    0.8038414720000000    C45
    0.7599352000000000    0.5244073570000001    0.8017015610000000    C46
    0.8549894400000000    0.5725255910000000    0.8021207600000000    C47
    0.9015898110000000    0.5248470900000000    0.8031748090000000    C48
    0.1930572989999999    0.5227580670000000    0.7984991670000001    C49
    0.2876429560000000    0.5683420900000000    0.7860075380000000    C50
    0.3369913990000000    0.5223008689999999    0.7971739170000001    C51
    0.4304935040000000    0.5716026130000000    0.7990204840000000    C52
    0.4776538319999999    0.5242770020000000    0.8032201230000000    C53
    0.4299296980000000    0.4285143610000000    0.8046675920000000    C54
    0.4763416350000000    0.3805785180000000    0.8034713720000001    C55
    0.5715038630000000    0.4294013980000000    0.8020407410000001    C56
    0.6188475940000000    0.3832252030000000    0.7968419490000000    C57
    0.7123530210000000    0.4296359420000000    0.7980967310000000    C58
    0.7603339850000000    0.3816040160000000    0.7975220980000001    C59
    0.8534001710000000    0.4287590980000000    0.8022564650000000    C60
    0.1468299630000000    0.4283851390000000    0.8035741450000000    C61
    0.1935638190000000    0.3813463450000000    0.8041258450000001    C62
    0.2890713220000000    0.4288508300000000    0.8032419530000001    C63
    0.3350467680000000    0.3805239200000000    0.8060901610000001    C64
    0.2863405770000000    0.2850534320000000    0.8078539370000001    C65
    0.3330686170000000    0.2367632990000000    0.8069865410000001    C66
    0.4280977550000000    0.2846287490000000    0.8036595880000000    C67
    0.4731786109999999    0.2360385659999999    0.7980429830000001    C68
    0.5691134630000000    0.2864966990000000    0.7862331720000001    C69
    0.6192349200000000    0.2361730340000000    0.7851081790000001    C70
    0.7162290810000000    0.2869415880000000    0.7949453740000001    C71
    0.7644109130000000    0.2425583600000000    0.7988173660000001    C72
    0.8614804150000001    0.2944054600000000    0.8023430560000000    C73
    0.9103669530000000    0.2486832740000000    0.8018251960000000    C74
    0.0050143600000000    0.2939732670000000    0.8044288750000000    C75
    0.0502248399999999    0.2422956820000000    0.8048758800000000    C76
    0.1445667740000000    0.2864419220000000    0.8062068670000000    C77
    0.1916152839999999    0.2379446030000000    0.8078089950000000    C78
    0.1436160390000000    0.1427092550000000    0.8075941350000000    C79
    0.1902207510000000    0.0939347149999999    0.8069515080000000    C80
    0.2853820180000000    0.1413785820000000    0.8063606470000001    C81
    0.3323796090000000    0.0932387710000000    0.8035542220000000    C82
    0.4273160390000000    0.1417242880000000    0.7994483710000000    C83
    0.4755981270000000    0.0934252740000000    0.7985379990000001    C84
    0.5696907640000000    0.1398071050000000    0.7962947190000000    C85
    0.6193310620000000    0.0955073239999999    0.8006233270000001    C86
    0.7160194519999999    0.1450694800000000    0.7993908820000001    C87
    0.7629216310000000    0.0989664790000000    0.7983569650000001    C88
    0.8616518379999999    0.1504180429999999    0.7853062600000000    C89
    0.9079813950000001    0.0990350840000001    0.8002424090000000    C90
    0.0014786130000000    0.1457627419999999    0.8044661730000000    C91
    0.0486879350000000    0.0967122320000000    0.8059891610000001    C92
    0.9925541579999999    0.5662764010000000    0.8047313840000001     N1
    0.1455836600000000    0.5653515760000001    0.8011746260000001     N2
    0.9033554790000000    0.3872196080000000    0.8045075240000000     N3
    0.0551323300000001    0.3869135980000000    0.8056920170000000     N4
    0.3108115200000000    0.6188132170000000    0.7358097430000001     O1
    0.5933967229999999    0.2616446609999999    0.7351398470000001     O2
    0.8664780260000000    0.1569772960000000    0.7254042030000001     O3
    0.0037100170000000    0.8537825500000000    0.7234200840000002     O4
    0.8378794199999999    0.0957673790000000    0.7115499970000001     H1
    0.9755544070000000    0.8870681450000000    0.7100497480000001     H2
    0.0240314010000000    0.4761952160000000    0.8052237180000000    Co1
