4-C4-COOH-O                             
   1.00000000000000     
    17.2371997832999995    0.0000000000000000    0.0000000000000000
    -8.6185998917000006   14.9278529024999997    0.0000000000000000
     0.0000000000000000    0.0000000000000000   25.0249996185000008
   C    N    O    H    Co
    93     4     6     3     1
Selective Dynamics
Direct
  0.0008764533589519  0.9987738935712291  0.1974236357355624 F F F
  0.0958418794044860  0.0466003413573005  0.2003941407947704 F F F
  0.1443760508572092  0.0017452103950744  0.1958228018064682 F F F
  0.2407669228667827  0.0505874984569485  0.1967733306309969 F F F
  0.2872832849882547  0.0028563566696424  0.1958134324516774 F F F
  0.3830546053477832  0.0510328815983184  0.1960049804771799 F F F
  0.4298986540938287  0.0023396398603621  0.1975860880660466 F F F
  0.5252057270673282  0.0490289024824123  0.1970338035956630 F F F
  0.5722021989540830  0.9998627462952235  0.1970541408830840 F F F
  0.6670582277307653  0.0457727383152648  0.1963166383319969 F F F
  0.7135598711718788  0.9966908159424864  0.1986443384417664 F F F
  0.8089715530516467  0.0447615160169957  0.1985547295915469 F F F
  0.8568314282544714  0.9962624189262200  0.1990945290571038 F F F
  0.9518708404447898  0.0451929095581985  0.1988047367828539 F F F
  0.0002297275834237  0.1412810894645684  0.1986998204277454 F F F
  0.0945172946343092  0.1900676415218634  0.2022436941789646 F F F
  0.1443184788907639  0.1430988499277251  0.2172334074279776 F F F
  0.2420906492123323  0.1938756189554494  0.2019515835069075 F F F
  0.2888023971482758  0.1471385744427687  0.1978449921456225 F F F
  0.3850148781425481  0.1970831363037197  0.1960458373622040 F F F
  0.4305510395563145  0.1466699006288140  0.1953077134403829 F F F
  0.5257213733736688  0.1933590458718708  0.1967378482529504 F F F
  0.5727850038004991  0.1441120661616924  0.1971611381852154 F F F
  0.6682833839393575  0.1898960085696280  0.1970345525724539 F F F
  0.7150698165996278  0.1411745731387579  0.1955865720191008 F F F
  0.8098184181450010  0.1884459283153821  0.1955498568519287 F F F
  0.8567295077718120  0.1397443733265228  0.1963140113758218 F F F
  0.9522213932953547  0.1884033028940973  0.1960977174832871 F F F
  0.9996150842904826  0.2837372304094423  0.1950447797055924 F F F
  0.0945158926762904  0.3318524432731192  0.1961548624710942 F F F
  0.1417030704209467  0.2841647176658782  0.1994309494689688 F F F
  0.2374043349350820  0.3334243535521562  0.2002824960596269 F F F
  0.2878625608790820  0.2884904345372876  0.1998784833049879 F F F
  0.3840856196197873  0.3407583680697725  0.1978895640325936 F F F
  0.4333890909778964  0.2938806460615042  0.1972212593844278 F F F
  0.5299886050256649  0.3402490690554395  0.1986766316889102 F F F
  0.5723544369540152  0.2879629922715296  0.2000700416240838 F F F
  0.6684026166403594  0.3315743620378591  0.2105456343335678 F F F
  0.7170421257321435  0.2838306561451715  0.2004742980913583 F F F
  0.8106970519863894  0.3318949147128363  0.1978981890148758 F F F
  0.8577651841960684  0.2838861853521998  0.1953001128142463 F F F
  0.9525540195689107  0.3318422137327170  0.1942225271086228 F F F
  0.0004067580234549  0.4273140388856537  0.1935770309110196 F F F
  0.0950880576200659  0.4752626867756105  0.1948907225053601 F F F
  0.1418949959544732  0.4274726204794776  0.1965347852966868 F F F
  0.2362168735851553  0.4756781294905509  0.1993088078852077 F F F
  0.2830704386461586  0.4275378755284179  0.1994469846787374 F F F
  0.3774412339071883  0.4752306901146885  0.1988678516958707 F F F
  0.6711392082646890  0.4773226377048696  0.1969482421425955 F F F
  0.7204417067242331  0.4317853857099674  0.2082295798543250 F F F
  0.8156008935540963  0.4777761014403500  0.1969191488610382 F F F
  0.8597517863427455  0.4285503120358009  0.1963594903588177 F F F
  0.9543628479361242  0.4759471666185542  0.1932073007357143 F F F
  0.0023050893456433  0.5717497766327573  0.1917756950577628 F F F
  0.0966155451557104  0.6196662077017225  0.1943653856646799 F F F
  0.1428636911653710  0.5708072236585348  0.1969954421692107 F F F
  0.2362324760173056  0.6169707640895189  0.2032163894975922 F F F
  0.2833883757456758  0.5705506197148106  0.2027761707400704 F F F
  0.3793196752071987  0.6186003263781895  0.2036756814902706 F F F
  0.4254000548793794  0.5713678946252732  0.1994000957406504 F F F
  0.7188645062590253  0.5717458719243843  0.1936688892980848 F F F
  0.8129935436759342  0.6188555047795666  0.1917885786769393 F F F
  0.8610044438052280  0.5714090867825219  0.1913211000349085 F F F
  0.9554589231295982  0.6197705964635011  0.1895749327296951 F F F
  0.0021227651323754  0.7152108531743768  0.1888798139868466 F F F
  0.0971351063550882  0.7634899443051829  0.1906334849591465 F F F
  0.1442557273724432  0.7156120659764776  0.1944589044941252 F F F
  0.2377589709260779  0.7641529333535576  0.2010937275474112 F F F
  0.2829784496078279  0.7137325157150445  0.2136565356578619 F F F
  0.3835570514075562  0.7640882352821882  0.2153222949060215 F F F
  0.4298171915333609  0.7131954911813426  0.2060201102427580 F F F
  0.5224817123217281  0.7576636750611421  0.2022524232020933 F F F
  0.5676156876306059  0.7056432016033025  0.1995105442836554 F F F
  0.6623242696077655  0.7513234693049881  0.2001128653184321 F F F
  0.7117797706421285  0.7062594514759087  0.1967357649079049 F F F
  0.8086679246671190  0.7579806960177523  0.1945296183433159 F F F
  0.8588277872845467  0.7137574056681558  0.1913645975756643 F F F
  0.9543897279686556  0.7622424130236696  0.1895958659256025 F F F
  0.0015771606972283  0.8574901680510469  0.1908754462565894 F F F
  0.0969600856417664  0.9062540870167511  0.1916758410879869 F F F
  0.1447294553007796  0.8588429648776652  0.1919802946657082 F F F
  0.2397966058185412  0.9069113681636793  0.1954005855194030 F F F
  0.2862268791279109  0.8584501059887258  0.1998373358143372 F F F
  0.3827878592375448  0.9067451347012019  0.2011566561223949 F F F
  0.4305125534452754  0.8603449786323718  0.2038350436969164 F F F
  0.5244239443489387  0.9045794325244800  0.1995469296704867 F F F
  0.5716091881251336  0.8550787052413774  0.2012078134245339 F F F
  0.6646447850920523  0.9012014697587276  0.2021294163746202 F F F
  0.7121540290517374  0.8501023757571591  0.2156473789711488 F F F
  0.8096260058978113  0.9011332229035456  0.2001759526851235 F F F
  0.8563190373269995  0.8543855682295244  0.1953438604703430 F F F
  0.9526238249244993  0.9034209979740208  0.1933734608736823 F F F
  0.5424618779010674  0.5202734324797262  0.2799976551301060 T T T
  0.4264923245344529  0.4334840730712359  0.1980836352077160 T T T
  0.5805919869696439  0.4340908637376732  0.1979594843230246 T T T
  0.5165907417754133  0.6132418789020830  0.1973653331358120 T T T
  0.6691616789672530  0.6135228420797976  0.1956198686888070 T T T
  0.3314500172852383  0.7389292167644188  0.2648817387335021 F F F
  0.7109605626397266  0.8448646050000409  0.2754567584512833 F F F
  0.1500511921738942  0.1446587874774646  0.2771915793579293 F F F
  0.6950562759020557  0.3846778049311687  0.2602043132022322 T T T
  0.4939305353320678  0.5407894894477688  0.3032591937434929 T T T
  0.5947374278024394  0.4957917543815692  0.3071090301068271 T T T
  0.7451539985864082  0.9062975497493930  0.2888108425176464 F F F
  0.0886439993457127  0.1113180207802203  0.2906190911603335 F F F
  0.6236706789118427  0.4730471174522629  0.2830560565428296 T T T
  0.5482915748461658  0.5235714894016472  0.2032045777088796 T T T