H2O                                     
1.0
       17.2371997833         0.0000000000         0.0000000000
       -8.6185998917        14.9278529025         0.0000000000
        0.0000000000         0.0000000000        25.0249996185
    O    H
    1    2
Selective Dynamics
Direct
     0.412256300         0.430763751         0.521501124 T T T
     0.477318853         0.465762466         0.521499395 T T T
     0.393224835         0.475183755         0.521499455 T T T
