3-NGO-CO-H2O-O                          
   1.00000000000000     
    17.2371997832999995    0.0000000000000000    0.0000000000000000
    -8.6185998917000006   14.9278529024999997    0.0000000000000000
     0.0000000000000000    0.0000000000000000   25.0249996185000008
   C    N    O    H 
    95     4     6     4
Selective Dynamics
Direct
  0.9997872806474375  0.0000830488900689  0.1990355470664389 F F F
  0.0945551269956405  0.0469371663558751  0.2014475343891216 F F F
  0.1417818862456688  0.0006543273476863  0.1971215830830968 F F F
  0.2379680636233878  0.0484190576181629  0.1967991276080826 F F F
  0.2847064195432363  0.0007215298499251  0.1951789162188572 F F F
  0.3804414890047582  0.0483473213049906  0.1944856046204131 F F F
  0.4279603231245523  0.0006478537132813  0.1957233597438291 F F F
  0.5233540066265041  0.0486194402675713  0.1952583948095208 F F F
  0.5711719508185631  0.0006351881655420  0.1957680727528692 F F F
  0.6662757795943816  0.0477354645661403  0.1952115698181371 F F F
  0.7134810967146366  0.9997239258958268  0.1987623265041847 F F F
  0.8091028471382629  0.0478817763463439  0.1986762705657209 F F F
  0.8571309938253691  0.9998398869241479  0.2003996751028488 F F F
  0.9518889273361019  0.0477756773475379  0.1994956269515882 F F F
  0.0004322198725814  0.1436969907651252  0.1977166189640289 F F F
  0.0948401390167929  0.1918226794445245  0.2006964033300585 F F F
  0.1434622269287131  0.1440691575206473  0.2168455634661520 F F F
  0.2403270882631510  0.1926644793498563  0.2007733125773756 F F F
  0.2857135341130531  0.1442530202749513  0.1967625370277632 F F F
  0.3810792298726343  0.1922456811956601  0.1938418849226540 F F F
  0.4278468177580750  0.1434713410835662  0.1935663726934262 F F F
  0.5228054043030699  0.1914222275480395  0.1948881165504422 F F F
  0.5705824287546675  0.1437007804809700  0.1952244861034001 F F F
  0.6665854176506232  0.1911124022955992  0.1947715688597059 F F F
  0.7140642547741107  0.1430973724042348  0.1935853761077622 F F F
  0.8090515307311208  0.1906571898977322  0.1932049417067833 F F F
  0.8566859092158291  0.1425069402010930  0.1949267518736215 F F F
  0.9522631179376319  0.1907303606678489  0.1942614839490133 F F F
  0.9997740791548830  0.2859931306951787  0.1921073484574049 F F F
  0.0950012622423034  0.3335881631795750  0.1926584530947143 F F F
  0.1426595323278079  0.2859805458446488  0.1966384079755295 F F F
  0.2383289489304976  0.3345484298505835  0.1973499824962083 F F F
  0.2865504115302510  0.2869079391495081  0.1977601809301321 F F F
  0.3815462461924087  0.3350389662700801  0.1950540874985798 F F F
  0.4288761720770314  0.2877123590265630  0.1939903142641297 F F F
  0.5242726639505977  0.3348481046777873  0.1953916440437762 F F F
  0.5693426486625724  0.2865928819724583  0.1971778862624247 F F F
  0.6655050017646222  0.3327280973268588  0.2079579271096885 F F F
  0.7146459493531837  0.2850243730673466  0.1973191492407015 F F F
  0.8085751747752881  0.3331862607882662  0.1945796319187628 F F F
  0.8565990019603408  0.2858685417983609  0.1922274282776086 F F F
  0.9519577802731274  0.3336124067215758  0.1910931080559806 F F F
  0.9993149639628662  0.4285969501445036  0.1906744332826970 F F F
  0.0947278229757888  0.4759753309039949  0.1911789544893403 F F F
  0.1429529500456795  0.4288076551107192  0.1920896195946153 F F F
  0.2385428860163047  0.4765916595529547  0.1941708650903395 F F F
  0.2865083956721354  0.4288072971053973  0.1954730921573060 F F F
  0.3825133502326508  0.4768715823685130  0.1955464119262921 F F F
  0.5236501616289111  0.4774700460514734  0.1955197801139316 F F F
  0.6643686426893312  0.4787134266327632  0.1978121672642042 F F F
  0.7137894620488465  0.4311696623073363  0.2076727133792155 F F F
  0.8100803896992077  0.4779697973779124  0.1964943966599879 F F F
  0.8563368990413600  0.4296438022798555  0.1941808320282638 F F F
  0.9514297928622476  0.4764373129854720  0.1915746772678176 F F F
  0.9993753903745530  0.5718914975203842  0.1918381464111396 F F F
  0.0944283224370639  0.6191966808312439  0.1933922525304790 F F F
  0.1424665306782736  0.5712485540346290  0.1937066210058200 F F F
  0.2365777305124070  0.6168410020623747  0.1984264020970403 F F F
  0.2854705308773652  0.5711681905757452  0.1970952042741747 F F F
  0.3821085503329137  0.6187452512354114  0.1988092099368634 F F F
  0.4294898609249428  0.5710215261383731  0.1962198328566180 F F F
  0.5701243389974303  0.5706190851635783  0.1952157941278456 F F F
  0.7111462603716271  0.5708392260760261  0.1955865306067895 F F F
  0.8075246069339995  0.6192753058503929  0.1949563422141909 F F F
  0.8559366269288456  0.5717484720858925  0.1937817089534719 F F F
  0.9513902147084806  0.6194487631544806  0.1918913400334679 F F F
  0.9987269492447512  0.7146176086800947  0.1918492150098587 F F F
  0.0941821791225342  0.7624502874711274  0.1923034017057367 F F F
  0.1418758844796325  0.7147090006091301  0.1943433749440194 F F F
  0.2360098693618158  0.7628814712272778  0.1992625818742800 F F F
  0.2825530351252790  0.7128161339108001  0.2098852462405093 F F F
  0.3825565619690068  0.7628333477273959  0.2118919955576410 F F F
  0.4302611016531695  0.7131017987328899  0.2024585655111939 F F F
  0.5234390128289456  0.7604702499544840  0.2010459540133545 F F F
  0.5716135204668706  0.7131814624558708  0.1986031329359418 F F F
  0.6647197280124183  0.7591962973561591  0.2008103198705500 F F F
  0.7129620322851233  0.7137658379826491  0.1976698525004483 F F F
  0.8071999758607097  0.7606666696369582  0.1976199060690982 F F F
  0.8552314584204270  0.7135698255691938  0.1948577577597805 F F F
  0.9508789070426785  0.7616882549108943  0.1931386496995954 F F F
  0.9987920291144755  0.8572069508760253  0.1939250392328683 F F F
  0.0939806115426517  0.9050982836873238  0.1938126309711359 F F F
  0.1418778371704440  0.8575142529675561  0.1932979068382032 F F F
  0.2372200369303621  0.9051461030040939  0.1950627832133709 F F F
  0.2842449920709362  0.8569459066517700  0.1981188169393003 F F F
  0.3810490997119934  0.9051880635427505  0.1989133502101854 F F F
  0.4294190481999627  0.8595820434397594  0.2015470274473878 F F F
  0.5236401164133764  0.9054306751966410  0.1983765439199628 F F F
  0.5717740892031483  0.8574256922293746  0.2010556986236557 F F F
  0.6649644500395053  0.9048784929683188  0.2032735800340070 F F F
  0.7129622320015960  0.8555556991113368  0.2181225933247510 F F F
  0.8100060336950244  0.9049457537096276  0.2030202141443277 F F F
  0.8554604229785808  0.8571764651308540  0.1985755773465323 F F F
  0.9512465498066832  0.9047997653873693  0.1961389533767902 F F F
  0.5505551171919810  0.6224672019311879  0.3239495798570663 T T T
  0.4288929034256520  0.4289310471128113  0.1951803886138544 T T T
  0.5694295392193991  0.4288729682552238  0.1968023780785308 T T T
  0.5242261695115047  0.6190341280050596  0.1954127801050328 T T T
  0.6648961470018677  0.6196392135559581  0.1943379349978817 T T T
  0.6888170462996842  0.3813952899351241  0.2599606392390456 F F F
  0.3309572392960786  0.7364269189650453  0.2624521742951486 T T T
  0.7091101770144276  0.8478410048644259  0.2779912396294485 F F F
  0.1499847781670151  0.1482253109090663  0.2768890470628851 F F F
  0.5567961172142174  0.6393414344691316  0.3684311890079813 T T T
  0.3478572891811339  0.5995114467445231  0.3215875872610616 T T T
  0.7423646054684693  0.9087317657297344  0.2922379927280346 F F F
  0.0888572898597515  0.1126327683887292  0.2904235199853932 F F F
  0.3117558984385646  0.5814624904970785  0.3538714236139229 T T T
  0.3380271563797080  0.6458441108678719  0.3054095139157946 T T T