CO2                                     
1.0
       17.2371997833         0.0000000000         0.0000000000
       -8.6185998917        14.9278529025         0.0000000000
        0.0000000000         0.0000000000        25.0249996185
    C    O
    1    2
Selective Dynamics
Direct
     0.507626474         0.516890824         0.514994800 T T T
     0.586440027         0.556298733         0.515002251 T T T
     0.428813487         0.477490395         0.515002906 T T T
