H2                                      
1.0
       17.2371997833         0.0000000000         0.0000000000
       -8.6185998917        14.9278529025         0.0000000000
        0.0000000000         0.0000000000        25.0249996185
    H
    2
Selective Dynamics
Direct
     0.516972840         0.478179246         0.499984264 T T T
     0.548947155         0.527740717         0.500015736 T T T
