2-NGO-COOHr-O                           
1.0
       17.2371997833         0.0000000000         0.0000000000
       -8.6185998917        14.9278529025         0.0000000000
        0.0000000000         0.0000000000        25.0249996185
    C    N    O    H
   95    4    6    4
Selective Dynamics
Direct
     0.999550521         0.998739541         0.201117694 F F F
     0.094423018         0.045336626         0.203253537 F F F
     0.141660929         0.999174774         0.198839888 F F F
     0.237801731         0.046825688         0.197863162 F F F
     0.284714997         0.999627709         0.195399091 F F F
     0.380260348         0.047103234         0.193268642 F F F
     0.427803308         0.999490559         0.193951964 F F F
     0.523121238         0.047400314         0.193558812 F F F
     0.570618391         0.999090374         0.194906294 F F F
     0.665882826         0.046356846         0.194563091 F F F
     0.713280439         0.998707831         0.199055091 F F F
     0.808881819         0.046968874         0.199411944 F F F
     0.856971025         0.998892128         0.201929122 F F F
     0.951913178         0.046872567         0.201194018 F F F
     0.000230735         0.142685875         0.199207455 F F F
     0.094789132         0.190993965         0.202387884 F F F
     0.143249482         0.142738923         0.218372703 F F F
     0.240244746         0.191191569         0.202645943 F F F
     0.285525233         0.142934233         0.197834477 F F F
     0.380654454         0.190612361         0.193875760 F F F
     0.427583933         0.142297700         0.192279831 F F F
     0.522590339         0.190331563         0.192967668 F F F
     0.570340097         0.142527252         0.193241715 F F F
     0.666337907         0.189893931         0.193003684 F F F
     0.713784933         0.141858414         0.192591712 F F F
     0.808888257         0.189633682         0.192909792 F F F
     0.856572032         0.141588360         0.195458621 F F F
     0.952191234         0.189863890         0.195396468 F F F
     0.999750078         0.285168737         0.193350419 F F F
     0.095214397         0.333041698         0.194647893 F F F
     0.142547861         0.284918457         0.198829755 F F F
     0.238382012         0.333462894         0.200343281 F F F
     0.286616236         0.285594821         0.200625196 F F F
     0.381117195         0.332866043         0.198084429 F F F
     0.428291589         0.286236882         0.194595203 F F F
     0.523754776         0.333666950         0.194238290 F F F
     0.568971455         0.285433292         0.195136383 F F F
     0.665142953         0.331533611         0.205881715 F F F
     0.714371026         0.283887833         0.195429265 F F F
     0.808315754         0.332077652         0.193496212 F F F
     0.856465161         0.284901649         0.191925555 F F F
     0.952025354         0.332800776         0.191675022 F F F
     0.999514759         0.427908242         0.191052720 F F F
     0.095004216         0.475456625         0.192276001 F F F
     0.142939731         0.428013146         0.194436595 F F F
     0.238989890         0.476212323         0.197960466 F F F
     0.286317766         0.427220315         0.199357465 F F F
     0.382788479         0.475442350         0.201718792 F F F
     0.522878647         0.475744337         0.198024377 F F F
     0.664075851         0.477912515         0.197181046 F F F
     0.713185072         0.429900885         0.206506819 F F F
     0.809880853         0.476910472         0.195881516 F F F
     0.856015503         0.428630292         0.193370730 F F F
     0.951367199         0.475561231         0.191081986 F F F
     0.998782039         0.570636094         0.191077545 F F F
     0.094730072         0.618245184         0.192015588 F F F
     0.142583013         0.570829570         0.193237126 F F F
     0.238054708         0.618762851         0.198220715 F F F
     0.286046028         0.570233583         0.200618103 F F F
     0.381851852         0.617935538         0.205127522 F F F
     0.427746505         0.568261325         0.205400735 F F F
     0.569792390         0.568975449         0.198447660 F F F
     0.710798025         0.569861770         0.196849763 F F F
     0.807456672         0.618324816         0.196267545 F F F
     0.855665684         0.570829809         0.193958223 F F F
     0.951267600         0.618230522         0.191871047 F F F
     0.998797894         0.713485241         0.192632377 F F F
     0.094280824         0.761026084         0.192753255 F F F
     0.141994923         0.713232279         0.193171307 F F F
     0.237263903         0.760475636         0.197417259 F F F
     0.283309996         0.712468684         0.202086046 F F F
     0.379272580         0.761270106         0.219526812 F F F
     0.428671837         0.711907566         0.208211884 F F F
     0.522562385         0.759284973         0.206202701 F F F
     0.571908832         0.714352369         0.206165597 F F F
     0.664505363         0.757673681         0.205503792 F F F
     0.712534010         0.712014318         0.201691031 F F F
     0.807521284         0.759902418         0.200686961 F F F
     0.855062425         0.712617040         0.196997583 F F F
     0.950987160         0.760518789         0.194945619 F F F
     0.998741090         0.855866551         0.196149185 F F F
     0.094034202         0.903517783         0.195599020 F F F
     0.141694516         0.856001616         0.194392934 F F F
     0.237426311         0.903459907         0.195690930 F F F
     0.284656823         0.856411576         0.197711959 F F F
     0.380759835         0.904042780         0.197787955 F F F
     0.428244412         0.857685208         0.202279016 F F F
     0.522629857         0.903723657         0.198882774 F F F
     0.571315646         0.856275797         0.202705562 F F F
     0.664660811         0.903832197         0.204414666 F F F
     0.713408291         0.855600297         0.220054567 F F F
     0.810041726         0.904252231         0.205060661 F F F
     0.855319619         0.855874777         0.201321959 F F F
     0.951168060         0.903509378         0.198671624 F F F
     0.531862020         0.611458004         0.285995990 T T T
     0.429489940         0.427795857         0.200626418 T T T
     0.568392634         0.427432150         0.195976958 T T T
     0.524825990         0.615960717         0.219955325 T T T
     0.665207088         0.618975103         0.197849378 T T T
     0.688032210         0.379120141         0.258373708 F F F
     0.709223151         0.849777102         0.280596554 F F F
     0.148849949         0.146152928         0.278428882 F F F
     0.498559713         0.657986641         0.308193952 T T T
     0.561080039         0.567547917         0.304993033 T T T
     0.371375859         0.761305153         0.279467225 T T T
     0.753998816         0.909069777         0.293437570 F F F
     0.087102160         0.115914531         0.291391820 F F F
     0.502749920         0.655237198         0.347227216 T T T
     0.432381690         0.799314678         0.292696118 T T T
