NGO                                     
   1.00000000000000     
    17.2372207641999999    0.0000000000000000    0.0000000000000000
    -8.6186103821000000   14.9278710724000003    0.0000000000000000
     0.0000000000000000    0.0000000000000000   25.0250015258999987
   C    N    O    H 
    94     4     4     2
Selective Dynamics
Direct
  0.0002102409588377  0.9999288238678810  0.1992503065004056 F F F
  0.0949084422859162  0.0467174407300656  0.2021682759819797 F F F
  0.1421984185368671  0.0004484941053672  0.1982842160072677 F F F
  0.2383665749572441  0.0482458665869136  0.1982267199427152 F F F
  0.2851485007965814  0.0005731180214819  0.1969441724882615 F F F
  0.3808755976331858  0.0482305163715377  0.1962687870555218 F F F
  0.4284280189828554  0.0005876796139374  0.1973446164407655 F F F
  0.5238066890276230  0.0485720415754999  0.1966184154999234 F F F
  0.5716270276477291  0.0006109281201452  0.1964103723569321 F F F
  0.6667205402137802  0.0477327585434523  0.1957151861519130 F F F
  0.7139381295844988  0.9996803035036066  0.1985311716039528 F F F
  0.8095550551314785  0.0477922386526873  0.1986093540424912 F F F
  0.8576042613663065  0.9997562478188343  0.1999409891991896 F F F
  0.9523393497634400  0.0476418994700725  0.1994874292340680 F F F
  0.0008699834092592  0.1435647978103712  0.1985166425418314 F F F
  0.0951992979195644  0.1915945135738715  0.2020170182234472 F F F
  0.1436743546298387  0.1436342537643571  0.2179232892399009 F F F
  0.2406606894862506  0.1924096769829189  0.2021653096216715 F F F
  0.2861040423545748  0.1440352663742556  0.1982106522184375 F F F
  0.3814785209102555  0.1920487210691993  0.1956665460328796 F F F
  0.4282782627324322  0.1433486258031884  0.1954709952686335 F F F
  0.5232321650959875  0.1913087224984427  0.1970998300345033 F F F
  0.5710341869241237  0.1436297234580674  0.1971319155591527 F F F
  0.6670297209531261  0.1910768758656843  0.1969413669753459 F F F
  0.7145233631552870  0.1431127821545405  0.1950693401952333 F F F
  0.8095065889316075  0.1906493371424992  0.1950563873785056 F F F
  0.8571480401218188  0.1424792695842935  0.1959329390529538 F F F
  0.9527131455740018  0.1906724015666246  0.1956924028872560 F F F
  0.0002261564914956  0.2859559526296134  0.1947719678869866 F F F
  0.0954277192768882  0.3335211930639801  0.1956938083779164 F F F
  0.1430705105998163  0.2858465358259077  0.1989252266758441 F F F
  0.2386867512813940  0.3343069538053312  0.1998877914005991 F F F
  0.2869106163369729  0.2866426751053684  0.1996939270422919 F F F
  0.3819323101527440  0.3347872512857603  0.1972697691975278 F F F
  0.4292783526381462  0.2875102014171133  0.1961178091638082 F F F
  0.5246808857658952  0.3346625484346744  0.1979394112147478 F F F
  0.5697519730167145  0.2864206547248868  0.1998413585108911 F F F
  0.6657754715836985  0.3324294040285413  0.2110963075319150 F F F
  0.7150644967553280  0.2849177325149547  0.2003811508714527 F F F
  0.8090248589539316  0.3331000279476821  0.1981279296025329 F F F
  0.8570637779737658  0.2858451448777409  0.1952559841070630 F F F
  0.9524175073065746  0.3335814262913925  0.1945042656763026 F F F
  0.9998002312366691  0.4285467281508346  0.1948300076734154 F F F
  0.0951822095110138  0.4759054511301584  0.1954971240887402 F F F
  0.1433597624411535  0.4287171077237084  0.1961087238014684 F F F
  0.2389225832920910  0.4764445736419028  0.1984714855775401 F F F
  0.2868784784511151  0.4285928216983284  0.1989333779233027 F F F
  0.3828790520207719  0.4766339413037109  0.1988604970476908 F F F
  0.5241023719192892  0.4772494373050522  0.1981934846249136 F F F
  0.6648310141830149  0.4785287226803098  0.2009537131837658 F F F
  0.7141160273883935  0.4309695802150214  0.2112193437213111 F F F
  0.8105741765628728  0.4778469331653021  0.2004995505828976 F F F
  0.8568345325082986  0.4295429246601533  0.1983131465480797 F F F
  0.9519384017536059  0.4763606991359365  0.1959020156398639 F F F
  0.9998909772998997  0.5717948919791677  0.1960422417080529 F F F
  0.0949424528404156  0.6191379721805572  0.1974354589968501 F F F
  0.1429546528560709  0.5711590351605252  0.1980278493973550 F F F
  0.2370105847489403  0.6167614309534986  0.2028739132870257 F F F
  0.2858644325796345  0.5710606939531108  0.2018069824101485 F F F
  0.3825640332923662  0.6186426021079962  0.2029870905769348 F F F
  0.4298154480003744  0.5707677400747058  0.1998155554991311 F F F
  0.5705793976552178  0.5702694120032338  0.1976399911233849 F F F
  0.7116298804013392  0.5705957454608572  0.1982679445461900 F F F
  0.8080107950380769  0.6190918709813394  0.1978587585965479 F F F
  0.8564382142198744  0.5716008617203303  0.1974931871413965 F F F
  0.9518947005299244  0.6193093458980293  0.1956782715101531 F F F
  0.9992140230984977  0.7144425749832167  0.1949226028215618 F F F
  0.0946482756173147  0.7622989186988890  0.1952507189464517 F F F
  0.1423734411864313  0.7146596371742060  0.1977256497778529 F F F
  0.2365356952337456  0.7629215268969401  0.2023246808585301 F F F
  0.2830875352184002  0.7130388797823146  0.2135967306848701 F F F
  0.3836109787542556  0.7633006569233926  0.2144513187076894 F F F
  0.4308790870193939  0.7131849378159421  0.2051773849589062 F F F
  0.5239396690109206  0.7604672951576583  0.2020453300956560 F F F
  0.5721015407526859  0.7131447466413582  0.1996931965421262 F F F
  0.6652170022419212  0.7591382449208348  0.2008805875975015 F F F
  0.7134393073894898  0.7135914211807325  0.1984104976680533 F F F
  0.8076543781922593  0.7605334915567457  0.1983598085439891 F F F
  0.8556963474399635  0.7133758596791088  0.1968340075067625 F F F
  0.9513319143384646  0.7614863339269775  0.1952972813296746 F F F
  0.9992555194944650  0.8570141015870451  0.1952529508535871 F F F
  0.0944282102733544  0.9048945508406423  0.1953791804224457 F F F
  0.1423515402525033  0.8573582241885374  0.1955593420555232 F F F
  0.2376659100337763  0.9050345618367935  0.1972297375105737 F F F
  0.2847680878145337  0.8569164066237978  0.2005537877340984 F F F
  0.3815456505528216  0.9051666875126708  0.2007374080802162 F F F
  0.4299788477215598  0.8596058405460656  0.2029304064583179 F F F
  0.5241028220748833  0.9054079871200359  0.1988279107986022 F F F
  0.5722460386733093  0.8574010165246474  0.2010599344029496 F F F
  0.6654511881599137  0.9048410042046735  0.2027241449856380 F F F
  0.7135866858968168  0.8557187190130570  0.2175907628216890 F F F
  0.8104966765794894  0.9048907761991977  0.2023647415065049 F F F
  0.8559277262648070  0.8570493521973239  0.1985443850095996 F F F
  0.9517116882488614  0.9046332265106116  0.1965179204749854 F F F
  0.4292713459948693  0.4286342837481485  0.1979063803973797 T T T
  0.5698452443372428  0.4285964473543132  0.1995951938257440 T T T
  0.5246218130191053  0.6188524164939634  0.1982134591480997 T T T
  0.6654447936494551  0.6194293903080279  0.1962250454294220 T T T
  0.6884169651268861  0.3806563405134743  0.2632241572252331 F F F
  0.3328627689142264  0.7381262644691688  0.2646593956693061 T T T
  0.7102866964828479  0.8488220013907080  0.2774944259366709 F F F
  0.1497716321438572  0.1469867499973146  0.2780074929531550 F F F
  0.7436520782098696  0.9099254596409885  0.2914019362145046 F F F
  0.0884366366385302  0.1125126639739144  0.2913994268449432 F F F

